p tw 170 542
0 1
0 55
0 152
0 163
1 13
1 14
1 15
1 16
2 3
2 4
2 5
2 6
2 7
2 8
2 14
2 100
2 152
3 4
3 5
3 6
3 7
3 8
3 30
3 114
4 5
4 6
4 7
4 8
4 92
4 137
4 138
5 6
5 7
5 8
5 32
5 140
6 7
6 8
6 16
6 31
6 88
6 101
6 126
6 141
6 161
7 8
7 96
7 169
8 12
8 99
8 142
9 10
9 43
9 143
10 44
10 59
10 108
10 109
10 144
11 12
11 17
11 18
11 19
12 99
12 142
13 14
13 15
13 16
13 98
14 15
14 16
14 100
14 152
15 16
15 20
15 46
15 53
15 54
15 55
15 56
16 31
16 88
16 101
16 126
16 141
16 161
17 18
17 19
17 35
17 63
17 132
18 19
18 33
18 98
18 99
18 100
18 101
18 102
19 34
19 103
19 104
19 105
20 21
20 46
20 53
20 54
20 55
20 56
21 69
22 23
22 27
22 28
22 29
23 110
23 129
23 133
24 25
24 26
24 153
24 167
25 26
25 75
25 86
25 155
25 157
25 158
25 159
26 156
27 28
27 29
27 48
27 64
27 90
27 131
27 133
27 145
28 29
28 41
28 42
29 49
29 61
29 115
29 121
29 136
29 139
30 31
30 32
30 114
31 32
31 88
31 101
31 126
31 141
31 161
32 140
33 34
33 35
33 98
33 99
33 100
33 101
33 102
34 35
34 103
34 104
34 105
35 63
35 132
36 37
36 119
36 164
37 106
37 107
37 108
38 39
38 40
38 42
38 60
38 61
38 62
38 63
38 64
38 65
39 40
39 41
39 136
40 118
40 139
41 42
41 136
42 60
42 61
42 62
42 63
42 64
42 65
43 44
43 45
43 46
43 143
44 45
44 46
44 59
44 108
44 109
44 144
45 46
45 112
45 127
46 53
46 54
46 55
46 56
47 48
47 49
47 50
47 62
47 130
47 146
47 159
48 49
48 50
48 64
48 90
48 131
48 133
48 145
49 50
49 61
49 115
49 121
49 136
49 139
50 147
50 158
50 167
51 52
51 71
51 123
52 57
52 107
52 111
52 125
52 164
53 54
53 55
53 56
53 68
53 69
53 70
54 55
54 56
54 73
54 162
55 56
55 152
55 163
56 143
56 144
57 58
57 59
57 107
57 111
57 125
57 164
58 59
58 106
59 108
59 109
59 144
60 61
60 62
60 63
60 64
60 65
60 118
61 62
61 63
61 64
61 65
61 115
61 121
61 136
61 139
62 63
62 64
62 65
62 130
62 146
62 159
63 64
63 65
63 132
64 65
64 90
64 131
64 133
64 145
65 89
66 67
66 138
66 166
67 135
67 150
67 151
68 69
68 70
68 73
69 70
70 162
70 163
71 72
71 123
72 124
73 162
74 75
74 76
74 78
74 84
75 76
75 86
75 155
75 157
75 158
75 159
76 77
76 83
76 104
76 151
76 168
77 78
77 83
77 104
77 151
77 168
78 84
79 80
79 116
79 120
80 117
80 122
80 123
80 124
80 125
81 82
81 93
81 103
81 150
81 165
81 166
82 94
82 148
83 84
83 85
83 86
83 104
83 151
83 168
84 85
84 86
85 86
85 105
85 132
86 155
86 157
86 158
86 159
87 88
87 102
88 101
88 126
88 141
88 161
89 90
90 131
90 133
90 145
91 92
91 93
91 94
91 95
91 96
91 97
92 93
92 94
92 95
92 96
92 137
92 138
93 94
93 95
93 96
93 103
93 150
93 165
93 166
94 95
94 96
94 148
95 96
95 149
96 169
97 137
97 169
98 99
98 100
98 101
98 102
99 100
99 101
99 102
99 142
100 101
100 102
100 152
101 102
101 126
101 141
101 161
103 104
103 105
103 150
103 165
103 166
104 105
104 151
104 168
105 132
106 107
106 108
107 108
107 111
107 125
107 164
108 109
108 144
109 110
109 111
109 112
109 113
109 144
110 111
110 112
110 113
110 129
110 133
111 112
111 113
111 125
111 164
112 113
112 127
113 128
113 145
114 161
115 116
115 117
115 121
115 136
115 139
116 117
116 120
117 122
117 123
117 124
117 125
118 139
119 120
119 121
119 122
119 164
120 121
120 122
121 122
121 136
121 139
122 123
122 124
122 125
123 124
123 125
124 125
125 164
126 127
126 128
126 129
126 141
126 161
127 128
127 129
128 129
128 145
129 133
130 131
130 146
130 159
131 133
131 145
133 145
134 135
134 165
134 168
135 150
135 151
136 139
137 138
137 169
138 166
140 141
140 142
141 142
141 161
143 144
146 147
146 159
147 158
147 167
148 149
150 151
150 165
150 166
151 168
152 163
153 154
153 155
153 156
153 167
154 155
154 156
154 160
155 156
155 157
155 158
155 159
157 158
157 159
157 160
158 159
158 167
162 163
165 166
165 168
